18001
0 0 1 1 1 1 1 1 1 1 1 1 0 1 1 0 1 0 1 0 1 1 1 0 1 1 0 1 0 0
21 10 7 16 20 8 13 18 21 9 20 13 18 22 5 14 13 8 25 9 21 27 8 25 5 22 20 6 5 6 2 13 11 9 4 22 27 27 11 5 4 13 10 9 4 7 20 6 5 7 22 13 8 7 13 22 27 3 3 25 22 16 8 25 9 4 2 22 9 3 8 22 18 21 14 10 7 16 7 7 11 2 10 10 4 21 27 24 2 16 4 2 8 10 4 8 13 24 7 5 4 13 11 9 4 10 27 8 7 5 10 27 8 25 9 10 27 8 7 13 7 20 6 5 7 21 18 3 8 5 22 13 8 25 13 22 27 3 7 25 4 13 18 10 21 10 20 16 25 25